26174
1 0 0 1 1 0 0 1 1 0 0 1 1 0 1 1 0 0 0 1 0 1 1 1 1 0 0 0 1 0 
7 19 21 22 21 12 15 28 22 28 4 28 23 3 28 7 3 8 22 0 11 21 23 24 23 11 24 19 4 21 19 19 4 21 28 12 8 8 24 15 7 8 12 4 8 19 3 21 19 14 24 24 24 21 8 12 11 8 22 7 4 0 7 8 3 11 23 14 28 12 7 12 19 8 23 23 8 23 8 24 23 0 8 7 4 23 19 0 24 7 28 19 7 11 0 3 11 12 0 28 28 15 12 7 4 0 4 24 22 3 19 4 22 12 12 8 28 7 14 8 14 11 28 19 4 21 21 11 19 0 28 24 11 8 23 8 3 3 28 14 12 22 11 11 11 23 24 15 22 7 24 0 23 0 8 11 21 15 3 3 3 0 23 24 23 24 23 4 3 21 23 8 19 14 4 21 0 14 4 14 23 21 21 19 12 8 28 23 0 21 21 21 19 4 7 12 7 15 23 19 

Total Run Time: 336559 ms.
